# run a simulation with this file using
# $ OMP_NUM_THREADS=1 mpirun -np 4 ./bout-particle-push -d particle-push-slab
# postprocess with
# $ python3 path/to/the/particle_animater.py dmplex_mesh_data.h5 particle_trajectories.h5part ../data

nout = 1
timestep = 1

[mesh]
J = 1

nx = 8  # X grid size
ny = 4  # Y grid size

dx = 1.0/(nx-4)  # X mesh spacing
dy = 2*pi/ny  # Y mesh spacing
dz = 1  # Unity in toroidal direction

Rxy = x
Rxy_corners = x - 0.5*dx
Rxy_lower_right_corners = x + 0.5*dx
Rxy_upper_left_corners = x - 0.5*dx
Rxy_upper_right_corners = x + 0.5*dx
Zxy = y
Zxy_corners = y - 0.5*dy
Zxy_lower_right_corners = y - 0.5*dy
Zxy_upper_left_corners = y + 0.5*dy
Zxy_upper_right_corners = y + 0.5*dy

[dmplex]
use_cxx_ivertex=true
test_dmplex_cell_volumes = true
test_dmplex_cell_centres = true

[solver]
type = pvode

[hermes]
components = (d+, e, vantage)
Nnorm = 1e19

[d+]
type = evolve_density
AA = 1
charge = 1

[Nd+]
function = 1
bndry_all = neumann

[e]
type = quasineutral
AA = 1/1836
charge = -1

[vantage]
dt = 1.0
nsteps = 1
test_mass_conservation = true
initial_neutral_density = 1e19
npart_per_cell = 20
background_ion_density = 1e19
background_ion_temperature = 50
background_ion_Vy = 1
remove_threshold = 1.0e-10
merge_threshold = 1.0e-10
iz_rate_override = 0.0
rec_rate_override = 0.0
